NAME : XML100_2274_15
DIMENSION : 101
NB_CLUSTERS : 4
CLUSTERING_ALG : KMeans
CLUSTERING_PARAMS : k(3)
CLUSTERS
1 0
2 1 6 10 12 14 21 24 25 26 27 29 31 36 44 45 48 49 56 57 61 66 79 80 81 82 85 95 98
3 2 3 7 8 9 11 13 15 16 17 18 19 22 30 32 33 34 35 37 38 39 40 41 42 46 50 51 52 53 54 59 60 62 65 67 68 69 70 71 73 74 75 76 77 78 83 84 86 87 88 89 91 92 93 94 97 100
4 4 5 20 23 28 43 47 55 58 63 64 72 90 96 99
EOF